c colouring generated by benchmark framework
p edge 144 2596
v 1 16
v 2 4
v 3 13
v 4 10
v 5 8
v 6 11
v 7 5
v 8 7
v 9 2
v 10 12
v 11 14
v 12 15
v 13 9
v 14 8
v 15 14
v 16 1
v 17 3
v 18 17
v 19 6
v 20 4
v 21 11
v 22 10
v 23 13
v 24 18
v 25 4
v 26 7
v 27 11
v 28 8
v 29 6
v 30 5
v 31 1
v 32 2
v 33 12
v 34 9
v 35 15
v 36 0
v 37 6
v 38 3
v 39 5
v 40 4
v 41 2
v 42 0
v 43 8
v 44 9
v 45 7
v 46 1
v 47 12
v 48 14
v 49 7
v 50 13
v 51 2
v 52 0
v 53 18
v 54 1
v 55 3
v 56 12
v 57 4
v 58 14
v 59 11
v 60 6
v 61 12
v 62 9
v 63 15
v 64 20
v 65 16
v 66 7
v 67 0
v 68 8
v 69 1
v 70 13
v 71 3
v 72 10
v 73 14
v 74 1
v 75 17
v 76 9
v 77 0
v 78 3
v 79 2
v 80 6
v 81 10
v 82 4
v 83 5
v 84 8
v 85 8
v 86 10
v 87 3
v 88 2
v 89 1
v 90 14
v 91 4
v 92 0
v 93 5
v 94 17
v 95 6
v 96 7
v 97 11
v 98 0
v 99 1
v 100 6
v 101 5
v 102 18
v 103 9
v 104 20
v 105 3
v 106 7
v 107 2
v 108 16
v 109 18
v 110 6
v 111 4
v 112 3
v 113 7
v 114 15
v 115 16
v 116 11
v 117 13
v 118 5
v 119 10
v 120 12
v 121 17
v 122 19
v 123 0
v 124 5
v 125 4
v 126 8
v 127 20
v 128 3
v 129 15
v 130 2
v 131 1
v 132 11
v 133 2
v 134 16
v 135 20
v 136 7
v 137 11
v 138 12
v 139 10
v 140 1
v 141 0
v 142 6
v 143 19
v 144 9
